proofs/rules/Booleans.smt2
(include "../theories/Core.smt2")
(include "../programs/Nary.smt2")

; SPLIT
(declare-rule split ((F Bool))
    :premises ()
    :args (F)
    :conclusion (or F (not F))
)

; RESOLUTION
(program resolve ((C1 Bool) (C2 Bool) (pol Bool) (L Bool))
    (Bool Bool Bool Bool) Bool
    (
        ; Both "clauses" are just the literal
        ((resolve C1 (not C1) true  C1) false)
        ((resolve (not C1) C1 false C1) false)
        ; The first "clause" is the literal
        ((resolve C1       C2 true  C1) (removeLeft (not C1) C2))
        ((resolve (not C1) C2 false C1) (removeLeft      C1  C2))
        ; The second "clause" is the literal
        ((resolve C1 (not C2) true  C2) (removeLeft      C2  C1))
        ((resolve C1      C2  false C2) (removeLeft (not C2) C1))
        ; Neither clause is just the literal
        ((resolve C1 C2 true  L) (appendLeft or (removeLeft      L  C1) (removeLeft (not L) C2)))
        ((resolve C1 C2 false L) (appendLeft or (removeLeft (not L) C1) (removeLeft      L  C2)))
    )
)

(declare-rule resolution ((C1 Bool) (C2 Bool) (pol Bool) (L Bool))
    :premises (C1 C2)
    :args (pol L)
    :conclusion (resolve C1 C2 pol L)
)

; Skip, needs support for premise lists
; CHAIN_RESOLUTION
; MACRO_RESOLUTION_TRUST
; MACRO_RESOLUTION

; FACTORING
(program factorLiterals ((l1 Bool) (l2 Bool) (ls Bool))
    (Bool) Bool
    (
        ((factorLiterals (or l1 l1)) l1)
        ((factorLiterals (or (or ls l1) l1)) (or (factorLiterals ls) l1))
        ((factorLiterals (or (or ls l1) l2)) (or (factorLiterals (or ls l1)) l2))
        ((factorLiterals ls) ls)
    )
)

(declare-rule factoring ((C Bool))
    :premises (C)
    :conclusion (factorLiterals C)
)

; REORDERING
; Naive O(n^2) test
(program isPermutation ((l1 Bool) (l2 Bool) (ls Bool) (ls2 Bool))
    (Bool Bool) Bool
    (
        ((isPermutation l1 l1) true)
        ((isPermutation (or l1 l2) (or l1 l2)) true)
        ((isPermutation (or l1 l2) (or l2 l1)) true)
        ((isPermutation (or ls l1) (or ls2 l2)) (isPermutation ls (removeLeft l1 (or ls2 l2))))
    )
)

(declare-rule reordering ((C1 Bool) (C2 Bool))
    :premises (C1)
    :args (C2)
    :requires (((isPermutation C1 C2) true))
    :conclusion C2
)

; EQ_RESOLVE
(declare-rule reordering ((F1 Bool) (F2 Bool))
    :premises (F1 (= F1 F2))
    :conclusion F2
)

; MODUS_PONENS
; NOT_NOT_ELIM
; CONTRA
; AND_ELIM
; AND_INTRO
; NOT_OR_ELIM
; IMPLIES_ELIM
; NOT_IMPLIES_ELIM1
; NOT_IMPLIES_ELIM2
; EQUIV_ELIM1
; EQUIV_ELIM2
; NOT_EQUIV_ELIM1
; NOT_EQUIV_ELIM2
; XOR_ELIM1
; XOR_ELIM2
; NOT_XOR_ELIM1
; NOT_XOR_ELIM2
; ITE_ELIM1
; ITE_ELIM2
; NOT_ITE_ELIM1
; NOT_ITE_ELIM2
; NOT_AND
; CNF_AND_POS
; CNF_AND_NEG
; CNF_OR_POS
; CNF_OR_NEG
; CNF_IMPLIES_POS
; CNF_IMPLIES_NEG1
; CNF_IMPLIES_NEG2
; CNF_EQUIV_POS1
; CNF_EQUIV_POS2
; CNF_EQUIV_NEG1
; CNF_EQUIV_NEG2
; CNF_XOR_POS1
; CNF_XOR_POS2
; CNF_XOR_NEG1
; CNF_XOR_NEG2
; CNF_ITE_POS1
; CNF_ITE_POS2
; CNF_ITE_POS3
; CNF_ITE_NEG1
; CNF_ITE_NEG2
; CNF_ITE_NEG3
; SAT_REFUTATION